presolving:
(round 1, fast)       3249 del vars, 9535 del conss, 0 add conss, 2192 chg bounds, 11408 chg sides, 9274 chg coeffs, 0 upgd conss, 0 impls, 2298 clqs
(round 2, fast)       3293 del vars, 10707 del conss, 0 add conss, 2194 chg bounds, 11419 chg sides, 9284 chg coeffs, 0 upgd conss, 0 impls, 2278 clqs
(round 3, fast)       3319 del vars, 10719 del conss, 0 add conss, 2194 chg bounds, 12417 chg sides, 10282 chg coeffs, 0 upgd conss, 0 impls, 2275 clqs
(round 4, exhaustive) 3319 del vars, 11017 del conss, 0 add conss, 2225 chg bounds, 13176 chg sides, 11041 chg coeffs, 0 upgd conss, 0 impls, 2275 clqs
(round 5, fast)       3321 del vars, 11019 del conss, 0 add conss, 2225 chg bounds, 13264 chg sides, 11129 chg coeffs, 0 upgd conss, 2 impls, 2273 clqs
(round 6, exhaustive) 3321 del vars, 11019 del conss, 0 add conss, 2241 chg bounds, 13279 chg sides, 11144 chg coeffs, 0 upgd conss, 2 impls, 2273 clqs
(round 7, exhaustive) 3321 del vars, 11019 del conss, 0 add conss, 2241 chg bounds, 13284 chg sides, 11149 chg coeffs, 6934 upgd conss, 2 impls, 2273 clqs
(round 8, medium)     3439 del vars, 11214 del conss, 0 add conss, 2241 chg bounds, 13284 chg sides, 11149 chg coeffs, 6934 upgd conss, 1781 impls, 2111 clqs
(round 9, fast)       3439 del vars, 11258 del conss, 0 add conss, 2241 chg bounds, 13284 chg sides, 11149 chg coeffs, 6934 upgd conss, 1781 impls, 2111 clqs
   (0.4s) probing: 1000/3444 (29.0%) - 0 fixings, 0 aggregations, 561 implications, 0 bound changes
   (0.4s) probing: 1001/3444 (29.1%) - 0 fixings, 0 aggregations, 561 implications, 0 bound changes
   (0.4s) probing aborted: 1000/1000 successive useless probings
   Deactivated symmetry handling methods, since SCIP was built without symmetry detector (SYM=none).
presolving (10 rounds: 10 fast, 5 medium, 4 exhaustive):
 3441 deleted vars, 11265 deleted constraints, 0 added constraints, 2241 tightened bounds, 0 added holes, 13284 changed sides, 11149 changed coefficients
 2168 implications, 2283 cliques
presolved problem has 5061 variables (3444 bin, 0 int, 0 impl, 1617 cont) and 13160 constraints
   1666 constraints of type <varbound>
   2109 constraints of type <setppc>
   6472 constraints of type <linear>
   2913 constraints of type <logicor>
transformed objective value is always integral (scale: 1)
Presolving Time: 0.43

 time | node  | left  |LP iter|LP it/n|mem/heur|mdpt |vars |cons |rows |cuts |sepa|confs|strbr|  dualbound   | primalbound  |  gap   | compl. 
  0.6s|     1 |     0 |   243 |     - |   134M |   0 |5061 |  13k|  13k|   0 |  0 |   4 |   0 | 2.275040e+01 |      --      |    Inf | unknown
r 0.6s|     1 |     0 |   243 |     - |shifting|   0 |5061 |  13k|  13k|   0 |  0 |   4 |   0 | 2.275040e+01 | 7.300000e+01 | 220.87%| unknown
  0.6s|     1 |     0 |   269 |     - |   136M |   0 |5061 |  13k|  13k|   3 |  1 |   4 |   0 | 2.500040e+01 | 7.300000e+01 | 192.00%| unknown
i 0.7s|     1 |     0 |   362 |     - |  oneopt|   0 |5061 |  13k|2830 |   3 |  1 |   4 |   0 | 2.500040e+01 | 3.800000e+01 |  52.00%| unknown
  0.7s|     1 |     0 |   362 |     - |   136M |   0 |5061 |  13k|2830 |   3 |  1 |   4 |   0 | 2.500040e+01 | 3.800000e+01 |  52.00%| unknown
  0.7s|     1 |     0 |   362 |     - |   136M |   0 |5061 |  13k|2296 |   3 |  1 |   4 |   0 | 2.500040e+01 | 3.800000e+01 |  52.00%| unknown
  0.7s|     1 |     0 |   447 |     - |   137M |   0 |5061 |  11k|1811 |   4 |  2 |   4 |   0 | 2.500040e+01 | 3.800000e+01 |  52.00%| unknown
  0.7s|     1 |     0 |   453 |     - |   137M |   0 |5061 |  11k|1803 |   5 |  3 |   4 |   0 | 2.618756e+01 | 3.800000e+01 |  45.11%| unknown
  0.7s|     1 |     0 |   512 |     - |   137M |   0 |5061 |  11k|1805 |   7 |  4 |   4 |   0 | 2.762501e+01 | 3.800000e+01 |  37.56%| unknown
  0.7s|     1 |     0 |   541 |     - |   137M |   0 |5061 |  11k|1807 |   9 |  5 |   4 |   0 | 2.850029e+01 | 3.800000e+01 |  33.33%| unknown
  0.7s|     1 |     0 |   575 |     - |   137M |   0 |5061 |  11k|1809 |  11 |  6 |   4 |   0 | 2.879279e+01 | 3.800000e+01 |  31.98%| unknown
  0.7s|     1 |     0 |   669 |     - |   137M |   0 |5061 |  11k|1805 |  14 |  7 |   4 |   0 | 3.095240e+01 | 3.800000e+01 |  22.77%| unknown
r 0.8s|     1 |     0 |   669 |     - |shifting|   0 |5061 |  11k|1805 |  14 |  7 |   4 |   0 | 3.095240e+01 | 3.800000e+01 |  22.77%| unknown
  0.8s|     1 |     0 |   688 |     - |   137M |   0 |5061 |  11k|1806 |  15 |  8 |   4 |   0 | 3.096629e+01 | 3.800000e+01 |  22.71%| unknown
i 0.8s|     1 |     0 |   744 |     - |  oneopt|   0 |5061 |  11k|1806 |  15 |  8 |   4 |   0 | 3.096629e+01 | 3.700000e+01 |  19.48%| unknown
 time | node  | left  |LP iter|LP it/n|mem/heur|mdpt |vars |cons |rows |cuts |sepa|confs|strbr|  dualbound   | primalbound  |  gap   | compl. 
  0.8s|     1 |     0 |   772 |     - |   138M |   0 |5061 |  11k|1808 |  17 |  9 |   5 |   0 | 3.194356e+01 | 3.700000e+01 |  15.83%| unknown
  0.8s|     1 |     0 |   800 |     - |   138M |   0 |5061 |  11k|1809 |  18 | 10 |   5 |   0 | 3.215145e+01 | 3.700000e+01 |  15.08%| unknown
  0.8s|     1 |     0 |   810 |     - |   138M |   0 |5061 |  11k|1811 |  20 | 11 |   6 |   0 | 3.234186e+01 | 3.700000e+01 |  14.40%| unknown
  0.8s|     1 |     0 |   829 |     - |   138M |   0 |5061 |  11k|1813 |  22 | 12 |   6 |   0 | 3.243388e+01 | 3.700000e+01 |  14.08%| unknown
  0.8s|     1 |     0 |   875 |     - |   138M |   0 |5061 |  11k|1815 |  24 | 13 |   6 |   0 | 3.295784e+01 | 3.700000e+01 |  12.26%| unknown
  0.8s|     1 |     0 |   913 |     - |   138M |   0 |5061 |  11k|1817 |  26 | 14 |   6 |   0 | 3.300029e+01 | 3.700000e+01 |  12.12%| unknown
  0.8s|     1 |     0 |   913 |     - |   138M |   0 |5061 |  11k|1783 |  26 | 14 |   6 |   0 | 3.300029e+01 | 3.700000e+01 |  12.12%| unknown
  0.8s|     1 |     0 |   913 |     - |   138M |   0 |5061 |  11k|1741 |  26 | 15 |   6 |   0 | 3.300029e+01 | 3.700000e+01 |  12.12%| unknown
  0.9s|     1 |     0 |   913 |     - |   138M |   0 |5061 |  10k|1707 |  26 | 16 |   6 |   0 | 3.300029e+01 | 3.700000e+01 |  12.12%| unknown
  0.9s|     1 |     0 |   915 |     - |   139M |   0 |5061 |3841 |1707 |  26 | 18 |   6 |   0 | 3.300029e+01 | 3.700000e+01 |  12.12%| unknown
d 0.9s|     1 |     0 |  1057 |     - |farkasdi|   0 |5061 |3840 |1707 |   0 | 20 |   6 |   0 | 3.300029e+01 | 3.600000e+01 |   9.09%| unknown
(run 1, node 1) restarting after 2949 global fixings of integer variables

(restart) converted 22 cuts from the global cut pool into linear constraints

presolving:
(round 1, fast)       4346 del vars, 2195 del conss, 0 add conss, 1 chg bounds, 8 chg sides, 9804 chg coeffs, 0 upgd conss, 2168 impls, 292 clqs
(round 2, fast)       4379 del vars, 2322 del conss, 0 add conss, 1 chg bounds, 8 chg sides, 9804 chg coeffs, 0 upgd conss, 2168 impls, 249 clqs
(round 3, fast)       4413 del vars, 2391 del conss, 0 add conss, 1 chg bounds, 8 chg sides, 9804 chg coeffs, 0 upgd conss, 2168 impls, 233 clqs
(round 4, fast)       4429 del vars, 2391 del conss, 0 add conss, 2 chg bounds, 8 chg sides, 9804 chg coeffs, 0 upgd conss, 2168 impls, 233 clqs
(round 5, fast)       4429 del vars, 2398 del conss, 0 add conss, 2 chg bounds, 24 chg sides, 9813 chg coeffs, 0 upgd conss, 2168 impls, 233 clqs
(round 6, medium)     4432 del vars, 2400 del conss, 0 add conss, 3 chg bounds, 24 chg sides, 9813 chg coeffs, 0 upgd conss, 2168 impls, 228 clqs
(round 7, fast)       4441 del vars, 2418 del conss, 0 add conss, 3 chg bounds, 24 chg sides, 9813 chg coeffs, 0 upgd conss, 2168 impls, 227 clqs
(round 8, fast)       4445 del vars, 2424 del conss, 0 add conss, 3 chg bounds, 24 chg sides, 9813 chg coeffs, 0 upgd conss, 2168 impls, 227 clqs
(round 9, fast)       4449 del vars, 2424 del conss, 0 add conss, 3 chg bounds, 24 chg sides, 9813 chg coeffs, 0 upgd conss, 2168 impls, 227 clqs
(round 10, exhaustive) 4449 del vars, 2427 del conss, 0 add conss, 3 chg bounds, 27 chg sides, 9813 chg coeffs, 0 upgd conss, 2168 impls, 227 clqs
(round 11, exhaustive) 4449 del vars, 2427 del conss, 0 add conss, 3 chg bounds, 27 chg sides, 9813 chg coeffs, 26 upgd conss, 2168 impls, 227 clqs
(round 12, medium)     4449 del vars, 2429 del conss, 1 add conss, 3 chg bounds, 30 chg sides, 9817 chg coeffs, 26 upgd conss, 2176 impls, 227 clqs
(round 13, fast)       4449 del vars, 2430 del conss, 2 add conss, 3 chg bounds, 30 chg sides, 9817 chg coeffs, 26 upgd conss, 2176 impls, 227 clqs
(round 14, exhaustive) 4449 del vars, 2432 del conss, 2 add conss, 3 chg bounds, 30 chg sides, 9821 chg coeffs, 26 upgd conss, 2176 impls, 227 clqs
(round 15, exhaustive) 4451 del vars, 2432 del conss, 2 add conss, 3 chg bounds, 30 chg sides, 9823 chg coeffs, 26 upgd conss, 2176 impls, 227 clqs
(round 16, fast)       4451 del vars, 2436 del conss, 2 add conss, 3 chg bounds, 36 chg sides, 9825 chg coeffs, 26 upgd conss, 2176 impls, 227 clqs
presolving (17 rounds: 17 fast, 7 medium, 5 exhaustive):
 4451 deleted vars, 2436 deleted constraints, 2 added constraints, 3 tightened bounds, 0 added holes, 36 changed sides, 9827 changed coefficients
 2176 implications, 227 cliques
presolved problem has 612 variables (429 bin, 0 int, 0 impl, 183 cont) and 1436 constraints
    153 constraints of type <varbound>
      7 constraints of type <knapsack>
    188 constraints of type <setppc>
    686 constraints of type <linear>
    402 constraints of type <logicor>
transformed objective value is always integral (scale: 1)
Presolving Time: 0.46

 time | node  | left  |LP iter|LP it/n|mem/heur|mdpt |vars |cons |rows |cuts |sepa|confs|strbr|  dualbound   | primalbound  |  gap   | compl. 
  1.1s|     1 |     0 |  1351 |     - |   140M |   0 | 612 |1436 |1427 |   0 |  0 |  15 |   0 | 3.300029e+01 | 3.600000e+01 |   9.09%| unknown
  1.1s|     1 |     0 |  1351 |     - |   140M |   0 | 612 |1436 |1005 |   0 |  0 |  15 |   0 | 3.300029e+01 | 3.600000e+01 |   9.09%| unknown
  1.1s|     1 |     0 |  1410 |     - |   140M |   0 | 612 |1290 | 819 |   2 |  1 |  15 |   0 | 3.308604e+01 | 3.600000e+01 |   8.81%| unknown
  1.1s|     1 |     0 |  1428 |     - |   140M |   0 | 612 |1289 | 821 |   4 |  2 |  15 |   0 | 3.327027e+01 | 3.600000e+01 |   8.20%| unknown
  1.1s|     1 |     0 |  1445 |     - |   140M |   0 | 612 |1289 | 825 |   8 |  3 |  15 |   0 | 3.400000e+01 | 3.600000e+01 |   5.88%| unknown
  1.1s|     1 |     0 |  1473 |     - |   140M |   0 | 612 |1289 | 828 |  11 |  4 |  15 |   0 | 3.400000e+01 | 3.600000e+01 |   5.88%| unknown
  1.1s|     1 |     0 |  1553 |     - |   140M |   0 | 612 |1289 | 825 |  13 |  5 |  15 |   0 | 3.400029e+01 | 3.600000e+01 |   5.88%| unknown
  1.1s|     1 |     0 |  1553 |     - |   140M |   0 | 612 |1289 | 332 |  13 |  5 |  15 |   0 | 3.400029e+01 | 3.600000e+01 |   5.88%| unknown
  1.1s|     1 |     0 |  1628 |     - |   140M |   0 | 612 |1265 | 314 |  16 |  6 |  15 |   0 | 3.600000e+01 | 3.600000e+01 |   0.00%| unknown
  1.1s|     1 |     0 |  1628 |     - |   140M |   0 | 612 |1265 | 314 |  16 |  6 |  15 |   0 | 3.600000e+01 | 3.600000e+01 |   0.00%| unknown

SCIP Status        : problem is solved [optimal solution found]
Solving Time (sec) : 1.09
Solving Nodes      : 1 (total of 2 nodes in 2 runs)
Primal Bound       : +3.60000000000000e+01 (6 solutions)
Dual Bound         : +3.60000000000000e+01
Gap                : 0.00 %
Root classes: ['0', '1', '38', '39', '52', '54', '55', '56', '57', '58', '59', '60', '61', '62', '63', '64', '65', '66', '67', '68', '69', '70', '71', '72', '73', '74', '75', '76', '77', '78', '79', '80', '81']
Status: OPTIMAL
